c read Graph
c width = 203
c time = 335 ms
c width = 17
c time = 504 ms
c width = 16
c time = 598 ms
c width = 15
c time = 976 ms
c width = 14
c time = 1269 ms
c width = 13
c time = 4110 ms
c width = 13
c time = 4395 ms
s td 194 14 216
b 1 1 2 19
b 2 2 3 19 20
b 3 16 17 35 36
b 4 3 19 20 37
b 5 16 35 36 54
b 6 163 181 182 200
b 7 180 197 198 215
b 8 163 182 200 201
b 9 180 197 214 215
b 10 3 4 5 22
b 11 3 5 21 22 38 55
b 12 5 21 22 38 40 55 57
b 13 5 22 38 40 55 57 74
b 14 38 55 56 57 74
b 15 5 22 40 55 57 74 91
b 16 55 73 74 91
b 17 5 22 24 40 41 57 74 91
b 18 5 24 40 41 57 59 74 76 91
b 19 40 57 58 59 76
b 20 5 24 41 57 59 74 76 91 93
b 21 5 24 41 59 74 76 91 93 110
b 22 74 91 92 93 110
b 23 5 24 41 43 59 60 76 91 93 110
b 24 24 41 42 43 60
b 25 5 24 43 59 60 76 79 91 93 95 96 110
b 26 59 60 76 78 79 95 96
b 27 59 76 77 78 95
b 28 5 24 43 60 62 76 79 91 93 95 96 110
b 29 5 24 43 62 76 79 91 93 95 96 110 113 129 130
b 30 76 93 95 110 112 113 129 130
b 31 93 110 111 112 129
b 32 76 93 94 95 112
b 33 5 24 43 62 79 91 96 110 113 129 130 147 163 164
b 34 5 24 43 62 79 96 113 130 147 163 164 166 185 204
b 35 5 24 43 62 79 96 113 130 147 149 164 166 185 204
b 36 5 24 43 62 79 96 113 130 132 149 164 166 185 204
b 37 5 24 43 62 79 96 113 132 149 166 167 185 204
b 38 5 24 43 62 79 96 113 132 149 167 168 185 204
b 39 5 24 43 62 79 96 113 132 149 168 185 187 204 206
b 40 187 204 205 206
b 41 168 185 186 187 204
b 42 5 24 43 62 79 96 113 132 149 151 168 187 206
b 43 132 149 150 151 168
b 44 5 24 43 62 79 96 113 132 151 168 170 187 206
b 45 151 168 169 170 187
b 46 5 24 43 62 79 96 113 132 151 170 187 189 206
b 47 5 24 43 62 79 96 113 115 132 151 170 189 206
b 48 96 113 114 115 132
b 49 5 24 43 62 79 96 115 132 134 151 170 189 206
b 50 115 132 133 134 151
b 51 5 24 43 62 79 96 98 115 134 151 170 189 206
b 52 79 96 97 98 115
b 53 5 24 43 62 79 81 98 115 134 151 170 189 206
b 54 5 24 43 62 81 98 115 117 134 151 170 189 206
b 55 5 24 43 62 81 98 100 117 134 151 170 189 206
b 56 81 98 99 100 117
b 57 5 24 43 62 81 100 117 134 151 153 170 189 206
b 58 5 24 43 62 81 100 117 134 136 153 170 189 206
b 59 117 134 135 136 153
b 60 5 9 24 26 43 62 81 100 117 136 153 170 189 206
b 61 9 26 27 43 45 62 81 100 117 136 153 170 189 206
b 62 9 27 28 43 45 62 81 100 117 136 153 170 189 206
b 63 9 28 45 62 64 81 100 117 136 153 170 189 206
b 64 9 28 45 47 64 81 100 117 136 153 170 189 206
b 65 28 45 46 47 64
b 66 9 28 47 64 81 100 117 119 136 153 170 189 206
b 67 100 117 118 119 136
b 68 9 28 47 64 81 100 119 136 153 170 172 189 206
b 69 9 28 47 64 81 100 119 136 153 155 172 189 206
b 70 136 153 154 155 172
b 71 9 28 47 64 81 100 119 136 155 172 189 191 206 210
b 72 9 28 47 64 81 100 119 136 155 172 174 191 206 210
b 73 9 28 47 64 81 100 119 136 155 174 191 193 206 210
b 74 174 191 192 193 206 210
b 75 9 28 47 64 81 83 100 119 136 155 174 193 210
b 76 9 28 47 64 83 100 102 119 136 155 174 193 210
b 77 83 100 101 102 119
b 78 9 28 47 64 66 83 102 119 136 155 174 193 210
b 79 9 28 47 66 83 85 102 119 136 155 174 193 210
b 80 9 28 47 66 85 102 119 136 138 155 174 193 210
b 81 119 136 137 138 155
b 82 9 28 47 66 85 102 119 138 155 157 174 193 210
b 83 138 155 156 157 174
b 84 9 28 47 66 85 102 119 121 138 157 174 193 210
b 85 9 28 47 66 85 102 121 138 140 157 174 193 210
b 86 121 138 139 140 157
b 87 102 119 120 121 138
b 88 66 83 84 85 102
b 89 47 64 65 66 83
b 90 64 81 82 83 100
b 91 155 172 173 174 191
b 92 172 189 191 206 208 210
b 93 191 208 209 210
b 94 189 206 207 208
b 95 172 189 190 191 208
b 96 153 170 171 172 189
b 97 45 62 63 64 81
b 98 26 43 44 45 62
b 99 5 7 9 24 26 43
b 100 5 6 7 24
b 101 7 24 25 26 43
b 102 7 8 9 26
b 103 134 151 152 153 170
b 104 98 115 116 117 134
b 105 62 79 80 81 98
b 106 170 187 188 189 206
b 107 113 130 131 132 149
b 108 130 147 148 149 166
b 109 147 163 164 166 185 202 204
b 110 147 163 164 166 183 185 202
b 111 147 164 165 166 183
b 112 166 183 184 185 202
b 113 163 164 183 201 202
b 114 163 164 182 183 201
b 115 185 202 203 204
b 116 91 110 129 146 147 163 164
b 117 91 110 127 129 146 163
b 118 127 145 146 163
b 119 110 127 128 129 146
b 120 91 109 110 127
b 121 43 60 61 62 79
b 122 57 74 75 76 93
b 123 5 22 23 24 41
b 124 21 38 39 40 57
b 125 3 21 37 38 55
b 126 3 20 21 37 38
b 127 85 102 103 104 121
b 128 68 85 86 87 104
b 129 87 104 105 106 123
b 130 104 121 122 123 140
b 131 123 140 141 142 159
b 132 9 28 47 66 85 102 121 140 157 174 176 193 210
b 133 9 28 47 66 85 102 121 140 157 159 176 193 210
b 134 9 28 47 66 85 102 104 121 140 159 176 193 210
b 135 9 28 47 66 85 104 121 123 140 159 176 193 210
b 136 9 28 47 66 85 104 123 140 142 159 176 193 210
b 137 9 28 47 66 85 104 108 123 125 142 159 176 193 210
b 138 9 28 47 66 85 104 106 108 123 125 142
b 139 9 28 47 66 85 87 104 106 108 123 125
b 140 9 13 28 32 47 49 66 68 87 106 108 125
b 141 9 28 47 49 66 68 85 87 106 108 125
b 142 9 28 47 66 68 85 87 104 106 108 125
b 143 68 85 87 104 106 108 125
b 144 140 157 158 159 176
b 145 106 123 124 125 142
b 146 108 125 142 159 176 193 210 212
b 147 193 210 211 212
b 148 108 125 142 144 159 176 193 212
b 149 108 125 126 144
b 150 125 142 144 159 176 193 195 212
b 151 176 193 194 195 212
b 152 125 142 144 159 161 176 195 212
b 153 125 142 143 144 161
b 154 142 144 159 161 176 178 195 212
b 155 144 161 178 195 212 214
b 156 144 161 178 180 195 214
b 157 161 178 180 195 196 214
b 158 161 178 179 180 196 214
b 159 179 180 196 197 214
b 160 144 161 162 180
b 161 195 212 213 214
b 162 142 159 160 161 178
b 163 159 176 177 178 195
b 164 49 66 67 68 85
b 165 9 13 28 30 32 47 49 66
b 166 13 30 31 32 49
b 167 9 11 13 28 30 47
b 168 9 10 11 28
b 169 11 28 29 30 47
b 170 11 12 13 30
b 171 30 47 48 49 66
b 172 13 32 49 68 87 89 106 108 125
b 173 89 106 107 108 125
b 174 13 32 49 68 70 87 89 106 108
b 175 70 87 88 89 106
b 176 13 32 49 51 68 70 87 89 108
b 177 51 68 69 70 87
b 178 13 32 51 70 72 89 108
b 179 72 89 90 108
b 180 13 15 32 51 70 72 89
b 181 15 32 51 53 70 72 89
b 182 53 70 71 72 89
b 183 15 32 34 51 53 70 72
b 184 34 51 52 53 70
b 185 15 32 33 34 51
b 186 15 34 53 54 72
b 187 15 16 34 53 54
b 188 16 34 35 53 54
b 189 13 14 15 32
b 190 32 49 50 51 68
b 191 157 174 175 176 193
b 192 198 215 216
b 193 181 199 200
b 194 17 18 36
1 2
2 4
3 194
3 5
4 126
5 188
6 193
6 8
7 192
7 9
8 114
9 159
10 11
11 125
11 12
12 124
12 13
13 15
13 14
15 17
15 16
17 123
17 18
18 20
18 19
20 122
20 21
21 23
21 22
23 25
23 24
25 28
25 26
26 27
28 121
28 29
29 33
29 30
30 32
30 31
33 116
33 34
34 109
34 35
35 108
35 36
36 107
36 37
37 38
38 39
39 42
39 40
39 41
42 44
42 43
44 46
44 45
46 106
46 47
47 49
47 48
49 51
49 50
51 53
51 52
53 105
53 54
54 104
54 55
55 57
55 56
57 103
57 58
58 60
58 59
60 99
60 61
61 98
61 62
62 63
63 97
63 64
64 66
64 65
66 68
66 67
68 96
68 69
69 71
69 70
71 92
71 72
72 91
72 73
73 75
73 74
75 76
75 90
76 77
76 78
78 89
78 79
79 88
79 80
80 82
80 81
82 84
82 83
84 87
84 85
85 132
85 86
92 94
92 95
92 93
99 102
99 100
99 101
109 110
109 115
110 111
110 112
110 113
113 114
116 117
117 118
117 119
117 120
125 126
127 134
128 143
129 139
130 135
131 136
132 191
132 133
133 144
133 134
134 135
135 136
136 137
137 146
137 138
138 145
138 139
139 142
140 172
140 165
140 141
141 164
141 142
142 143
146 147
146 148
148 149
148 150
150 151
150 152
152 153
152 154
154 162
154 163
154 155
155 161
155 156
156 160
156 157
157 158
158 159
165 166
165 167
165 171
167 168
167 170
167 169
172 174
172 173
174 175
174 176
176 190
176 177
176 178
178 179
178 180
180 189
180 181
181 182
181 183
183 186
183 185
183 184
186 187
187 188
